Route #1: 1 42 41 16 44 33 28 1 
Route #2: 1 1 17 40 3 24 49 23 1 
Route #3: 1 22 8 35 26 6 56 43 1 
Route #4: 1 2 45 29 57 46 34 1 
Route #5: 1 51 50 39 38 53 7 15 1 
Route #6: 1 30 13 5 37 36 47 48 1 
Route #7: 1 18 55 25 32 12 58 52 1 
Route #8: 1 21 27 19 14 10 1 
Route #9: 1 59 20 54 31 4 1 
Route #10: 1 9 11 1 

Cost 1316.1
Time 0.8064


 * Another infos *

 Iterations: 60 Time: 0.8064 sec - 0.0134 min - 0.0002 horas
0.0000 h 0.0134 min
Problem dimension: 60
